(set-logic ALL)
(declare-const GEN1 Int)
(declare-const GEN2 Int)
(declare-const GEN3 Int)
(declare-const GEN4 Int)
(declare-const GEN5 Int)
(declare-const GEN6 Int)
(declare-const GEN7 Int)
(declare-const GEN8 Int)
(declare-const GEN9 Int)
(declare-const GEN10 Int)
(declare-const GEN11 Int)
(declare-const GEN12 Int)
(declare-const GEN13 Int)
(declare-const GEN14 Int)
(declare-const GEN15 Int)
(declare-const GEN16 Int)
(declare-const GEN17 Int)
(declare-const GEN18 Int)
(declare-const GEN19 Int)
(declare-const GEN20 Int)
(declare-const GEN21 Int)
(declare-const GEN22 Int)
(declare-const GEN23 Int)
(declare-const GEN24 Int)
(declare-const GEN25 Int)
(declare-const GEN26 Int)
(declare-const GEN27 Int)
(declare-const GEN28 Int)
(declare-const GEN29 Int)
(declare-const GEN30 Int)
(declare-const GEN31 Int)
(declare-const GEN32 Int)
(declare-const GEN33 Int)
(declare-const GEN34 Int)
(declare-const GEN35 Int)
(declare-const GEN36 Int)
(declare-const GEN37 Int)
(declare-const GEN38 Int)
(declare-const GEN39 Int)
(declare-const GEN40 Int)
(declare-const GEN41 Int)
(declare-const GEN42 Int)
(declare-const GEN43 Int)
(declare-const GEN44 Int)
(declare-const GEN45 Int)
(declare-const GEN46 Int)
(declare-const GEN47 Int)
(declare-const GEN48 Int)
(declare-const GEN49 Int)
(declare-const GEN50 Int)
(declare-const GEN51 Int)
(declare-const GEN52 Int)
(declare-const GEN53 Int)
(declare-const GEN54 Int)
(declare-const GEN55 Int)
(declare-const GEN56 Int)
(declare-const GEN57 Int)
(declare-const GEN58 Int)
(declare-const GEN59 Int)
(declare-const GEN60 Int)
(declare-const GEN61 Int)
(declare-const GEN62 Int)
(declare-const GEN63 Int)
(declare-const GEN64 Int)
(declare-const GEN65 Int)
(declare-const GEN66 Int)
(declare-const GEN67 Int)
(declare-const GEN68 Int)
(declare-const GEN69 Int)
(declare-const GEN70 Int)
(declare-const GEN71 Int)
(declare-const GEN72 Int)
(declare-const GEN73 Int)
(declare-const GEN74 Int)
(declare-const GEN75 Int)
(declare-const GEN76 Int)
(declare-const GEN77 Int)
(declare-const GEN78 Int)
(declare-const GEN79 Int)
(declare-const GEN80 Int)
(declare-const GEN81 Int)
(declare-const GEN82 Int)
(declare-const GEN83 Int)
(declare-const GEN84 Int)
(declare-const GEN85 Int)
(declare-const GEN86 Int)
(declare-const GEN87 Int)
(declare-const GEN88 Int)
(declare-const GEN89 Int)
(declare-const GEN90 Int)
(declare-const GEN91 Int)
(declare-const GEN92 Int)
(declare-const GEN93 Int)
(declare-const GEN94 Int)
(declare-const GEN95 Int)
(declare-const GEN96 Int)
(declare-const GEN97 Int)
(declare-const GEN98 Int)
(declare-const GEN99 Int)
(declare-const GEN100 Int)
(declare-const GEN101 Int)
(declare-const GEN102 Int)
(declare-const GEN103 Int)
(declare-const GEN104 Int)
(declare-const GEN105 Int)
(declare-const GEN106 Int)
(declare-const GEN107 Int)
(declare-const GEN108 Int)
(declare-const GEN109 Int)
(declare-const GEN110 Int)
(declare-const BAV111 Bool)
(declare-const BAV112 Bool)
(declare-const BAV113 Bool)
(declare-const BAV114 Bool)
(declare-const BAV115 Bool)
(declare-const BAV116 Bool)
(declare-const BAV117 Bool)
(declare-const BAV118 Bool)
(declare-const BAV119 Bool)
(declare-const BAV120 Bool)
(declare-const BAV121 Bool)
(declare-const BAV122 Bool)
(declare-const BAV123 Bool)
(declare-const BAV124 Bool)
(declare-const BAV125 Bool)
(declare-const BAV126 Bool)
(declare-const BAV127 Bool)
(declare-const BAV128 Bool)
(declare-const BAV129 Bool)
(declare-const BAV130 Bool)
(declare-const BAV131 Bool)
(declare-const BAV132 Bool)
(declare-const BAV133 Bool)
(declare-const BAV134 Bool)
(declare-const BAV135 Bool)
(declare-const BAV136 Bool)
(declare-const BAV137 Bool)
(declare-const BAV138 Bool)
(declare-const BAV139 Bool)
(declare-const BAV140 Bool)
(declare-const BAV141 Bool)
(declare-const BAV142 Bool)
(declare-const BAV143 Bool)
(declare-const BAV144 Bool)
(declare-const BAV145 Bool)
(declare-const BAV146 Bool)
(declare-const BAV147 Bool)
(declare-const BAV148 Bool)
(declare-const BAV149 Bool)
(declare-const BAV150 Bool)
(declare-const BAV151 Bool)
(declare-fun x0 () Real)
(declare-fun x1 () Real)
(declare-fun x2 () Real)
(assert (or (= (+ (* GEN1 x1) (* (- GEN2) x0) (* GEN3 x1)) GEN4) (not (= (+ (* GEN5 x1) (* GEN6 x1) (* (- GEN7) x2)) GEN8)) (< (+ (* (- GEN9) x1) (* (- GEN10) x0)) GEN11)))
(assert (or (<= (+ (* (- GEN12) x2) (* (- GEN13) x1)) (- GEN14)) (not (> (+ (* (- GEN15) x2) (* GEN16 x0)) (- GEN17)))))
(assert (= BAV111 (or (= (+ (* GEN1 x1) (* (- GEN2) x0) (* GEN3 x1)) GEN4) (not (= (+ (* GEN5 x1) (* GEN6 x1) (* (- GEN7) x2)) GEN8)) (< (+ (* (- GEN9) x1) (* (- GEN10) x0)) GEN11))))
(assert (= BAV112 (= (+ (* GEN1 x1) (* (- GEN2) x0) (* GEN3 x1)) GEN4)))
(assert (= BAV113 (= (+ (* GEN5 x1) (* GEN6 x1) (* (- GEN7) x2)) GEN8)))
(assert (= BAV114 (< (+ (* (- GEN9) x1) (* (- GEN10) x0)) GEN11)))
(assert (= BAV115 (or (<= (+ (* (- GEN12) x2) (* (- GEN13) x1)) (- GEN14)) (not (> (+ (* (- GEN15) x2) (* GEN16 x0)) (- GEN17))))))
(assert (= BAV116 (<= (+ (* (- GEN12) x2) (* (- GEN13) x1)) (- GEN14))))
(assert (= BAV117 (> (+ (* (- GEN15) x2) (* GEN16 x0)) (- GEN17))))
(assert (= BAV118 (or (> (+ (* GEN18 x0) (* GEN19 x2)) GEN20) (>= (+ (* GEN21 x2) (* GEN22 x2) (* GEN23 x1)) (- GEN24)))))
(assert (= BAV119 (> (+ (* GEN18 x0) (* GEN19 x2)) GEN20)))
(assert (= BAV120 (>= (+ (* GEN21 x2) (* GEN22 x2) (* GEN23 x1)) (- GEN24))))
(assert (= BAV121 (or (= (+ (* (- GEN25) x0) (* GEN26 x0)) GEN27) (<= (+ (* GEN28 x1) (* GEN29 x0) (* GEN30 x0) (* (- GEN31) x2)) (- GEN32)))))
(assert (= BAV122 (= (+ (* (- GEN25) x0) (* GEN26 x0)) GEN27)))
(assert (= BAV123 (<= (+ (* GEN28 x1) (* GEN29 x0) (* GEN30 x0) (* (- GEN31) x2)) (- GEN32))))
(assert (= BAV124 (or (not (<= (+ (* (- GEN33) x2) (* (- GEN34) x1) (* GEN35 x2)) GEN36)) (>= (+ (* GEN37 x2) (* GEN38 x0) (* (- GEN39) x0) (* (- GEN40) x1)) (- GEN41)))))
(assert (= BAV125 (<= (+ (* (- GEN33) x2) (* (- GEN34) x1) (* GEN35 x2)) GEN36)))
(assert (= BAV126 (>= (+ (* GEN37 x2) (* GEN38 x0) (* (- GEN39) x0) (* (- GEN40) x1)) (- GEN41))))
(assert (= BAV127 (or (> (+ (* GEN42 x1) (* GEN43 x2)) GEN44) (not (<= (+ (* GEN45 x2) (* GEN46 x1) (* (- GEN47) x2) (* (- GEN48) x2)) (- GEN49))))))
(assert (= BAV128 (> (+ (* GEN42 x1) (* GEN43 x2)) GEN44)))
(assert (= BAV129 (<= (+ (* GEN45 x2) (* GEN46 x1) (* (- GEN47) x2) (* (- GEN48) x2)) (- GEN49))))
(assert (= BAV130 (<= (+ (* GEN50 x0) (* (- GEN51) x0) (* GEN52 x1)) GEN53)))
(assert (= BAV131 (or (> (+ (* GEN54 x1) (* (- GEN55) x2)) (- GEN56)) (not (< (+ (* (- GEN57) x2) (* (- GEN58) x2) (* (- GEN59) x2) (* (- GEN60) x1)) GEN61)) (>= (+ (* GEN62 x2) (* GEN63 x1) (* (- GEN64) x2) (* GEN65 x0)) GEN66))))
(assert (= BAV132 (> (+ (* GEN54 x1) (* (- GEN55) x2)) (- GEN56))))
(assert (= BAV133 (< (+ (* (- GEN57) x2) (* (- GEN58) x2) (* (- GEN59) x2) (* (- GEN60) x1)) GEN61)))
(assert (= BAV134 (>= (+ (* GEN62 x2) (* GEN63 x1) (* (- GEN64) x2) (* GEN65 x0)) GEN66)))
(assert (= BAV135 (or (> (+ (* (- GEN67) x2) (* GEN68 x0) (* (- GEN69) x1) (* (- GEN70) x0)) (- GEN71)) (not (>= (+ (* GEN72 x0) (* GEN73 x0)) (- GEN74))))))
(assert (= BAV136 (> (+ (* (- GEN67) x2) (* GEN68 x0) (* (- GEN69) x1) (* (- GEN70) x0)) (- GEN71))))
(assert (= BAV137 (>= (+ (* GEN72 x0) (* GEN73 x0)) (- GEN74))))
(assert (= BAV138 (or (= (+ (* (- GEN75) x1) (* GEN76 x2) (* (- GEN77) x2) (* (- GEN78) x1)) (- GEN79)) (<= (+ (* (- GEN80) x2) (* GEN81 x1) (* (- GEN82) x2) (* (- GEN83) x2)) GEN84))))
(assert (= BAV139 (= (+ (* (- GEN75) x1) (* GEN76 x2) (* (- GEN77) x2) (* (- GEN78) x1)) (- GEN79))))
(assert (= BAV140 (<= (+ (* (- GEN80) x2) (* GEN81 x1) (* (- GEN82) x2) (* (- GEN83) x2)) GEN84)))
(assert (= BAV141 (or (not (<= (+ (* (- GEN85) x1) (* (- GEN86) x1)) GEN87)) (<= (+ (* (- GEN88) x0) (* (- GEN89) x2)) (- GEN90)))))
(assert (= BAV142 (<= (+ (* (- GEN85) x1) (* (- GEN86) x1)) GEN87)))
(assert (= BAV143 (<= (+ (* (- GEN88) x0) (* (- GEN89) x2)) (- GEN90))))
(assert (= BAV144 (or (= (+ (* (- GEN91) x2) (* GEN92 x2)) (- GEN93)) (< (+ (* GEN94 x0) (* GEN95 x1)) (- GEN96)))))
(assert (= BAV145 (= (+ (* (- GEN91) x2) (* GEN92 x2)) (- GEN93))))
(assert (= BAV146 (< (+ (* GEN94 x0) (* GEN95 x1)) (- GEN96))))
(assert (= BAV147 (or (< (+ (* (- GEN97) x2) (* (- GEN98) x2) (* GEN99 x1)) (- GEN100)) (not (> (+ (* GEN101 x1) (* GEN102 x0)) (- GEN103))) (>= (+ (* (- GEN104) x0) (* (- GEN105) x0)) GEN106))))
(assert (= BAV148 (< (+ (* (- GEN97) x2) (* (- GEN98) x2) (* GEN99 x1)) (- GEN100))))
(assert (= BAV149 (> (+ (* GEN101 x1) (* GEN102 x0)) (- GEN103))))
(assert (= BAV150 (>= (+ (* (- GEN104) x0) (* (- GEN105) x0)) GEN106)))
(assert (= BAV151 (< (+ (* (- GEN107) x1) (* (- GEN108) x1) (* GEN109 x1)) (- GEN110))))
(check-sat)
(push 1)
(assert (or (> (+ (* GEN18 x0) (* GEN19 x2)) GEN20) (>= (+ (* GEN21 x2) (* GEN22 x2) (* GEN23 x1)) (- GEN24))))
(assert (or (= (+ (* (- GEN25) x0) (* GEN26 x0)) GEN27) (<= (+ (* GEN28 x1) (* GEN29 x0) (* GEN30 x0) (* (- GEN31) x2)) (- GEN32))))
(assert (or (not (<= (+ (* (- GEN33) x2) (* (- GEN34) x1) (* GEN35 x2)) GEN36)) (>= (+ (* GEN37 x2) (* GEN38 x0) (* (- GEN39) x0) (* (- GEN40) x1)) (- GEN41))))
(assert (or (> (+ (* GEN42 x1) (* GEN43 x2)) GEN44) (not (<= (+ (* GEN45 x2) (* GEN46 x1) (* (- GEN47) x2) (* (- GEN48) x2)) (- GEN49)))))
(assert (not (<= (+ (* GEN50 x0) (* (- GEN51) x0) (* GEN52 x1)) GEN53)))
(assert (or (> (+ (* GEN54 x1) (* (- GEN55) x2)) (- GEN56)) (not (< (+ (* (- GEN57) x2) (* (- GEN58) x2) (* (- GEN59) x2) (* (- GEN60) x1)) GEN61)) (>= (+ (* GEN62 x2) (* GEN63 x1) (* (- GEN64) x2) (* GEN65 x0)) GEN66)))
(assert (or (> (+ (* (- GEN67) x2) (* GEN68 x0) (* (- GEN69) x1) (* (- GEN70) x0)) (- GEN71)) (not (>= (+ (* GEN72 x0) (* GEN73 x0)) (- GEN74)))))
(check-sat)
(push 1)
(assert (or (= (+ (* (- GEN75) x1) (* GEN76 x2) (* (- GEN77) x2) (* (- GEN78) x1)) (- GEN79)) (<= (+ (* (- GEN80) x2) (* GEN81 x1) (* (- GEN82) x2) (* (- GEN83) x2)) GEN84)))
(assert (or (not (<= (+ (* (- GEN85) x1) (* (- GEN86) x1)) GEN87)) (<= (+ (* (- GEN88) x0) (* (- GEN89) x2)) (- GEN90))))
(assert (or (= (+ (* (- GEN91) x2) (* GEN92 x2)) (- GEN93)) (< (+ (* GEN94 x0) (* GEN95 x1)) (- GEN96))))
(check-sat)
(push 1)
(check-sat)
(pop 1)
(assert (or (< (+ (* (- GEN97) x2) (* (- GEN98) x2) (* GEN99 x1)) (- GEN100)) (not (> (+ (* GEN101 x1) (* GEN102 x0)) (- GEN103))) (>= (+ (* (- GEN104) x0) (* (- GEN105) x0)) GEN106)))
(check-sat)
(pop 1)
(assert (< (+ (* (- GEN107) x1) (* (- GEN108) x1) (* GEN109 x1)) (- GEN110)))
(check-sat)